c Lingeling SAT Solver
c 
c Version azf 92032848c138b2f33629ad24394d60a3787a1046
c 
c Copyright (C) 2010-2014 Armin Biere JKU Linz Austria.
c All rights reserved.
c 
c released Don Mai 22 22:08:00 CEST 2014
c compiled Mon Oct  6 05:55:43 PDT 2014
c 
c gcc (Ubuntu 4.8.2-19ubuntu1) 4.8.2
c -Wall -O3 -DNDBLSCR -DNLGLOG -DNDEBUG -DNCHKSOL -DNLGLPICOSAT -DNLGLDRUPLIG
c -DNLGLYALSAT
c Linux ubuntu 3.13.0-32-generic x86_64
c 
c reading input file benchmark-sat/translations/gc-le450_5c-4.cnf
c no embedded options
c found 'p cnf 1800 42362' header
c read 1800 variables, 42362 clauses, 85624 literals in 0.00 seconds
c 
c  seconds         irredundant          redundant clauses agility   height
c          variables clauses conflicts large ternary binary    glue         MB
c 
c S    0.0    1800    42362         0       0      0     0   0  0.0   0.0    1
c 
c  seconds         irredundant          redundant clauses agility   height
c          variables clauses conflicts large ternary binary    glue         MB
c 
s UNSATISFIABLE
c
c    0.180  99% simplifying
c    0.001   1% search
c ==================================
c    0.181 100% all
c 
c 43 decisions, 237.2 decisions/sec
c 29 conflicts, 160.0 conflicts/sec
c 1758 propagations, 0.0 megaprops/sec
c 0.2 seconds, 3.6 MB
